benchmark/results/graph__10-1000-0.10-02_15/graph__10-1000-0.10-02_15_QuintonOs_Benders_sub.lp
\ This file has been generated by DOcplex
\ ENCODING=ISO-8859-1
\Problem name: Quinton Bounded Benders_dual_sub

Minimize
 obj: 0.000868809731 pi_nr_a0 + 0.000919117647 pi_nr_a1
      + 0.001270648030 pi_nr_a2 + 0.000924214418 pi_nr_a3
      + 0.001420454545 pi_nr_a4 + 0.002123142251 pi_nr_a5
      + 0.001663893511 pi_nr_a6 + 0.001278772379 pi_nr_a7
      + 0.001015228426 pi_nr_a8 + 0.001038421599 pi_nr_a9 + pi_p_a1_a2
      + pi_p_a1_a5 + 2 pi_p_a1_a9 + pi_p_a7_a9 + pi_p_a2_a9
      + 2458 pi_d_a0_a1_proc_0 + pi_d_a1_a0_proc_1 + 2459 pi_d_a1_a0_proc_0
      + pi_d_a0_a2_proc_1 + 2459 pi_d_a0_a2_proc_0 + 2458 pi_d_a2_a0_proc_0
      + 1241 pi_d_a0_a3_proc_0 + 1218 pi_d_a3_a0_proc_0 + 1241 pi_d_a0_a4_proc_0
      + 1218 pi_d_a4_a0_proc_0 + 1241 pi_d_a0_a5_proc_1 + 1241 pi_d_a0_a5_proc_0
      + 1218 pi_d_a5_a0_proc_1 + 1218 pi_d_a5_a0_proc_0 + 1218 pi_d_a0_a6_proc_0
      + 1241 pi_d_a6_a0_proc_0 + 1241 pi_d_a0_a7_proc_0 + 1218 pi_d_a7_a0_proc_0
      + 1241 pi_d_a0_a8_proc_0 + 1218 pi_d_a8_a0_proc_0 + 2458 pi_d_a0_a9_proc_0
      + pi_d_a9_a0_proc_1 + 2459 pi_d_a9_a0_proc_0 + pi_d_a1_a2_proc_1
      + 2459 pi_d_a1_a2_proc_0 + 2458 pi_d_a2_a1_proc_0 + 1241 pi_d_a1_a3_proc_0
      + 1218 pi_d_a3_a1_proc_0 + 1241 pi_d_a1_a4_proc_0 + 1218 pi_d_a4_a1_proc_0
      + 1241 pi_d_a1_a5_proc_1 + 1241 pi_d_a1_a5_proc_0 + 1218 pi_d_a5_a1_proc_1
      + 1218 pi_d_a5_a1_proc_0 + 1218 pi_d_a1_a6_proc_0 + 1241 pi_d_a6_a1_proc_0
      + 1241 pi_d_a1_a7_proc_0 + 1218 pi_d_a7_a1_proc_0 + 1218 pi_d_a1_a8_proc_0
      + 1241 pi_d_a8_a1_proc_0 + pi_d_a1_a9_proc_1 + 2459 pi_d_a1_a9_proc_0
      + 2458 pi_d_a9_a1_proc_0 + 1241 pi_d_a2_a3_proc_0 + 1218 pi_d_a3_a2_proc_0
      + 1241 pi_d_a2_a4_proc_0 + 1218 pi_d_a4_a2_proc_0 + 1241 pi_d_a2_a5_proc_1
      + 1241 pi_d_a2_a5_proc_0 + 1218 pi_d_a5_a2_proc_1 + 1218 pi_d_a5_a2_proc_0
      + 1241 pi_d_a2_a6_proc_0 + 1218 pi_d_a6_a2_proc_0 + 1218 pi_d_a2_a7_proc_0
      + 1241 pi_d_a7_a2_proc_0 + 1218 pi_d_a2_a8_proc_0 + 1241 pi_d_a8_a2_proc_0
      + 2458 pi_d_a2_a9_proc_0 + pi_d_a9_a2_proc_1 + 2459 pi_d_a9_a2_proc_0
      + pi_d_a3_a4_proc_0 + pi_d_a3_a5_proc_0 + pi_d_a3_a6_proc_0
      + pi_d_a7_a3_proc_0 + 12 pi_d_a3_a8_proc_0 - 11 pi_d_a8_a3_proc_0
      + 1218 pi_d_a3_a9_proc_0 + 1241 pi_d_a9_a3_proc_0 + pi_d_a4_a5_proc_0
      + pi_d_a4_a6_proc_0 + pi_d_a7_a4_proc_0 + 12 pi_d_a4_a8_proc_0
      - 11 pi_d_a8_a4_proc_0 + 1241 pi_d_a4_a9_proc_0 + 1218 pi_d_a9_a4_proc_0
      + pi_d_a6_a5_proc_0 + pi_d_a7_a5_proc_0 + 12 pi_d_a5_a8_proc_0
      - 11 pi_d_a8_a5_proc_0 + 1241 pi_d_a5_a9_proc_1 + 1241 pi_d_a5_a9_proc_0
      + 1218 pi_d_a9_a5_proc_1 + 1218 pi_d_a9_a5_proc_0 + pi_d_a7_a6_proc_0
      + 12 pi_d_a6_a8_proc_0 - 11 pi_d_a8_a6_proc_0 + 1218 pi_d_a6_a9_proc_0
      + 1241 pi_d_a9_a6_proc_0 + 12 pi_d_a7_a8_proc_0 - 11 pi_d_a8_a7_proc_0
      + 1241 pi_d_a7_a9_proc_0 + 1218 pi_d_a9_a7_proc_0 + 1218 pi_d_a8_a9_proc_0
      + 1241 pi_d_a9_a8_proc_0 + pi_y2_a0_proc_1 + pi_y2_a1_proc_1
      + pi_y2_a2_proc_1 + pi_y2_a3_proc_0 + pi_y2_a4_proc_0 + pi_y2_a5_proc_0
      + pi_y2_a6_proc_0 + pi_y2_a7_proc_0 + pi_y2_a8_proc_0 + pi_y2_a9_proc_1
Subject To
 c1: pi_nr_a0 + pi_nr_a1 + pi_nr_a2 + pi_nr_a3 + pi_nr_a4 + pi_nr_a5 + pi_nr_a6
     + pi_nr_a7 + pi_nr_a8 + pi_nr_a9 - pi_y1_a0 - pi_y1_a1 - pi_y1_a2
     - pi_y1_a3 - pi_y1_a4 - pi_y1_a5 - pi_y1_a6 - pi_y1_a7 - pi_y1_a8
     - pi_y1_a9 >= 1
 c2: pi_p_a0_a1 + pi_p_a0_a7 - pi_p_a5_a0 + pi_d_a0_a1_proc_1
     + pi_d_a0_a1_proc_0 - pi_d_a1_a0_proc_1 - pi_d_a1_a0_proc_0
     + pi_d_a0_a2_proc_1 + pi_d_a0_a2_proc_0 - pi_d_a2_a0_proc_1
     - pi_d_a2_a0_proc_0 + pi_d_a0_a3_proc_0 - pi_d_a3_a0_proc_0
     + pi_d_a0_a4_proc_0 - pi_d_a4_a0_proc_0 + pi_d_a0_a5_proc_1
     + pi_d_a0_a5_proc_0 - pi_d_a5_a0_proc_1 - pi_d_a5_a0_proc_0
     + pi_d_a0_a6_proc_0 - pi_d_a6_a0_proc_0 + pi_d_a0_a7_proc_0
     - pi_d_a7_a0_proc_0 + pi_d_a0_a8_proc_0 - pi_d_a8_a0_proc_0
     + pi_d_a0_a9_proc_1 + pi_d_a0_a9_proc_0 - pi_d_a9_a0_proc_1
     - pi_d_a9_a0_proc_0 >= 0
 c3: 1134 pi_p_a0_a1 + 1134 pi_p_a0_a7 + 1134 pi_d_a0_a1_proc_0
     + 1134 pi_d_a0_a2_proc_0 + 1134 pi_d_a0_a3_proc_0 + 1134 pi_d_a0_a4_proc_0
     + 1134 pi_d_a0_a5_proc_0 + 1134 pi_d_a0_a6_proc_0 + 1134 pi_d_a0_a7_proc_0
     + 1134 pi_d_a0_a8_proc_0 + 1134 pi_d_a0_a9_proc_0 + pi_y1_a0
     + pi_y2_a0_proc_0 >= 0
 c4: 1151 pi_p_a0_a1 + 1151 pi_p_a0_a7 + 1151 pi_d_a0_a1_proc_1
     + 1151 pi_d_a0_a2_proc_1 + 1151 pi_d_a0_a5_proc_1 + 1151 pi_d_a0_a9_proc_1
     + pi_y1_a0 + pi_y2_a0_proc_1 >= 0
 c5: - pi_p_a0_a1 + pi_p_a1_a2 - pi_p_a3_a1 + pi_p_a1_a5 + pi_p_a1_a9
     - pi_p_a7_a1 - pi_d_a0_a1_proc_1 - pi_d_a0_a1_proc_0 + pi_d_a1_a0_proc_1
     + pi_d_a1_a0_proc_0 + pi_d_a1_a2_proc_1 + pi_d_a1_a2_proc_0
     - pi_d_a2_a1_proc_1 - pi_d_a2_a1_proc_0 + pi_d_a1_a3_proc_0
     - pi_d_a3_a1_proc_0 + pi_d_a1_a4_proc_0 - pi_d_a4_a1_proc_0
     + pi_d_a1_a5_proc_1 + pi_d_a1_a5_proc_0 - pi_d_a5_a1_proc_1
     - pi_d_a5_a1_proc_0 + pi_d_a1_a6_proc_0 - pi_d_a6_a1_proc_0
     + pi_d_a1_a7_proc_0 - pi_d_a7_a1_proc_0 + pi_d_a1_a8_proc_0
     - pi_d_a8_a1_proc_0 + pi_d_a1_a9_proc_1 + pi_d_a1_a9_proc_0
     - pi_d_a9_a1_proc_1 - pi_d_a9_a1_proc_0 >= 0
 c6: 1103 pi_p_a1_a2 + 1103 pi_p_a1_a5 + 1103 pi_p_a1_a9
     + 1103 pi_d_a1_a0_proc_0 + 1103 pi_d_a1_a2_proc_0 + 1103 pi_d_a1_a3_proc_0
     + 1103 pi_d_a1_a4_proc_0 + 1103 pi_d_a1_a5_proc_0 + 1103 pi_d_a1_a6_proc_0
     + 1103 pi_d_a1_a7_proc_0 + 1103 pi_d_a1_a8_proc_0 + 1103 pi_d_a1_a9_proc_0
     + pi_y1_a1 + pi_y2_a1_proc_0 >= 0
 c7: 1088 pi_p_a1_a2 + 1088 pi_p_a1_a5 + 1088 pi_p_a1_a9
     + 1088 pi_d_a1_a0_proc_1 + 1088 pi_d_a1_a2_proc_1 + 1088 pi_d_a1_a5_proc_1
     + 1088 pi_d_a1_a9_proc_1 + pi_y1_a1 + pi_y2_a1_proc_1 >= 0
 c8: - pi_p_a1_a2 + pi_p_a2_a4 + pi_p_a2_a3 + pi_p_a2_a9 - pi_d_a0_a2_proc_1
     - pi_d_a0_a2_proc_0 + pi_d_a2_a0_proc_1 + pi_d_a2_a0_proc_0
     - pi_d_a1_a2_proc_1 - pi_d_a1_a2_proc_0 + pi_d_a2_a1_proc_1
     + pi_d_a2_a1_proc_0 + pi_d_a2_a3_proc_0 - pi_d_a3_a2_proc_0
     + pi_d_a2_a4_proc_0 - pi_d_a4_a2_proc_0 + pi_d_a2_a5_proc_1
     + pi_d_a2_a5_proc_0 - pi_d_a5_a2_proc_1 - pi_d_a5_a2_proc_0
     + pi_d_a2_a6_proc_0 - pi_d_a6_a2_proc_0 + pi_d_a2_a7_proc_0
     - pi_d_a7_a2_proc_0 + pi_d_a2_a8_proc_0 - pi_d_a8_a2_proc_0
     + pi_d_a2_a9_proc_1 + pi_d_a2_a9_proc_0 - pi_d_a9_a2_proc_1
     - pi_d_a9_a2_proc_0 >= 0
 c9: 1039 pi_p_a2_a4 + 1039 pi_p_a2_a3 + 1039 pi_p_a2_a9
     + 1039 pi_d_a2_a0_proc_0 + 1039 pi_d_a2_a1_proc_0 + 1039 pi_d_a2_a3_proc_0
     + 1039 pi_d_a2_a4_proc_0 + 1039 pi_d_a2_a5_proc_0 + 1039 pi_d_a2_a6_proc_0
     + 1039 pi_d_a2_a7_proc_0 + 1039 pi_d_a2_a8_proc_0 + 1039 pi_d_a2_a9_proc_0
     + pi_y1_a2 + pi_y2_a2_proc_0 >= 0
 c10: 787 pi_p_a2_a4 + 787 pi_p_a2_a3 + 787 pi_p_a2_a9 + 787 pi_d_a2_a0_proc_1
      + 787 pi_d_a2_a1_proc_1 + 787 pi_d_a2_a5_proc_1 + 787 pi_d_a2_a9_proc_1
      + pi_y1_a2 + pi_y2_a2_proc_1 >= 0
 c11: pi_p_a3_a1 - pi_p_a4_a3 - pi_p_a8_a3 - pi_p_a2_a3 - pi_d_a0_a3_proc_0
      + pi_d_a3_a0_proc_0 - pi_d_a1_a3_proc_0 + pi_d_a3_a1_proc_0
      - pi_d_a2_a3_proc_0 + pi_d_a3_a2_proc_0 + pi_d_a3_a4_proc_0
      - pi_d_a4_a3_proc_0 + pi_d_a3_a5_proc_0 - pi_d_a5_a3_proc_0
      + pi_d_a3_a6_proc_0 - pi_d_a6_a3_proc_0 + pi_d_a3_a7_proc_0
      - pi_d_a7_a3_proc_0 + pi_d_a3_a8_proc_0 - pi_d_a8_a3_proc_0
      + pi_d_a3_a9_proc_0 - pi_d_a9_a3_proc_0 >= 0
 c12: 1082 pi_p_a3_a1 + 1082 pi_d_a3_a0_proc_0 + 1082 pi_d_a3_a1_proc_0
      + 1082 pi_d_a3_a2_proc_0 + 1082 pi_d_a3_a4_proc_0 + 1082 pi_d_a3_a5_proc_0
      + 1082 pi_d_a3_a6_proc_0 + 1082 pi_d_a3_a7_proc_0 + 1082 pi_d_a3_a8_proc_0
      + 1082 pi_d_a3_a9_proc_0 + pi_y1_a3 + pi_y2_a3_proc_0 >= 0
 c13: pi_p_a4_a3 - pi_p_a6_a4 - pi_p_a2_a4 - pi_d_a0_a4_proc_0
      + pi_d_a4_a0_proc_0 - pi_d_a1_a4_proc_0 + pi_d_a4_a1_proc_0
      - pi_d_a2_a4_proc_0 + pi_d_a4_a2_proc_0 - pi_d_a3_a4_proc_0
      + pi_d_a4_a3_proc_0 + pi_d_a4_a5_proc_0 - pi_d_a5_a4_proc_0
      + pi_d_a4_a6_proc_0 - pi_d_a6_a4_proc_0 + pi_d_a4_a7_proc_0
      - pi_d_a7_a4_proc_0 + pi_d_a4_a8_proc_0 - pi_d_a8_a4_proc_0
      + pi_d_a4_a9_proc_0 - pi_d_a9_a4_proc_0 >= 0
 c14: 704 pi_p_a4_a3 + 704 pi_d_a4_a0_proc_0 + 704 pi_d_a4_a1_proc_0
      + 704 pi_d_a4_a2_proc_0 + 704 pi_d_a4_a3_proc_0 + 704 pi_d_a4_a5_proc_0
      + 704 pi_d_a4_a6_proc_0 + 704 pi_d_a4_a7_proc_0 + 704 pi_d_a4_a8_proc_0
      + 704 pi_d_a4_a9_proc_0 + pi_y1_a4 + pi_y2_a4_proc_0 >= 0
 c15: - pi_p_a1_a5 + pi_p_a5_a0 - pi_d_a0_a5_proc_1 - pi_d_a0_a5_proc_0
      + pi_d_a5_a0_proc_1 + pi_d_a5_a0_proc_0 - pi_d_a1_a5_proc_1
      - pi_d_a1_a5_proc_0 + pi_d_a5_a1_proc_1 + pi_d_a5_a1_proc_0
      - pi_d_a2_a5_proc_1 - pi_d_a2_a5_proc_0 + pi_d_a5_a2_proc_1
      + pi_d_a5_a2_proc_0 - pi_d_a3_a5_proc_0 + pi_d_a5_a3_proc_0
      - pi_d_a4_a5_proc_0 + pi_d_a5_a4_proc_0 + pi_d_a5_a6_proc_0
      - pi_d_a6_a5_proc_0 + pi_d_a5_a7_proc_0 - pi_d_a7_a5_proc_0
      + pi_d_a5_a8_proc_0 - pi_d_a8_a5_proc_0 + pi_d_a5_a9_proc_1
      + pi_d_a5_a9_proc_0 - pi_d_a9_a5_proc_1 - pi_d_a9_a5_proc_0 >= 0
 c16: 471 pi_p_a5_a0 + 471 pi_d_a5_a0_proc_0 + 471 pi_d_a5_a1_proc_0
      + 471 pi_d_a5_a2_proc_0 + 471 pi_d_a5_a3_proc_0 + 471 pi_d_a5_a4_proc_0
      + 471 pi_d_a5_a6_proc_0 + 471 pi_d_a5_a7_proc_0 + 471 pi_d_a5_a8_proc_0
      + 471 pi_d_a5_a9_proc_0 + pi_y1_a5 + pi_y2_a5_proc_0 >= 0
 c17: 1229 pi_p_a5_a0 + 1229 pi_d_a5_a0_proc_1 + 1229 pi_d_a5_a1_proc_1
      + 1229 pi_d_a5_a2_proc_1 + 1229 pi_d_a5_a9_proc_1 + pi_y1_a5
      + pi_y2_a5_proc_1 >= 0
 c18: pi_p_a6_a4 - pi_d_a0_a6_proc_0 + pi_d_a6_a0_proc_0 - pi_d_a1_a6_proc_0
      + pi_d_a6_a1_proc_0 - pi_d_a2_a6_proc_0 + pi_d_a6_a2_proc_0
      - pi_d_a3_a6_proc_0 + pi_d_a6_a3_proc_0 - pi_d_a4_a6_proc_0
      + pi_d_a6_a4_proc_0 - pi_d_a5_a6_proc_0 + pi_d_a6_a5_proc_0
      + pi_d_a6_a7_proc_0 - pi_d_a7_a6_proc_0 + pi_d_a6_a8_proc_0
      - pi_d_a8_a6_proc_0 + pi_d_a6_a9_proc_0 - pi_d_a9_a6_proc_0 >= 0
 c19: 601 pi_p_a6_a4 + 601 pi_d_a6_a0_proc_0 + 601 pi_d_a6_a1_proc_0
      + 601 pi_d_a6_a2_proc_0 + 601 pi_d_a6_a3_proc_0 + 601 pi_d_a6_a4_proc_0
      + 601 pi_d_a6_a5_proc_0 + 601 pi_d_a6_a7_proc_0 + 601 pi_d_a6_a8_proc_0
      + 601 pi_d_a6_a9_proc_0 + pi_y1_a6 + pi_y2_a6_proc_0 >= 0
 c20: - pi_p_a0_a7 - pi_p_a9_a7 + pi_p_a7_a9 + pi_p_a7_a1 - pi_d_a0_a7_proc_0
      + pi_d_a7_a0_proc_0 - pi_d_a1_a7_proc_0 + pi_d_a7_a1_proc_0
      - pi_d_a2_a7_proc_0 + pi_d_a7_a2_proc_0 - pi_d_a3_a7_proc_0
      + pi_d_a7_a3_proc_0 - pi_d_a4_a7_proc_0 + pi_d_a7_a4_proc_0
      - pi_d_a5_a7_proc_0 + pi_d_a7_a5_proc_0 - pi_d_a6_a7_proc_0
      + pi_d_a7_a6_proc_0 + pi_d_a7_a8_proc_0 - pi_d_a8_a7_proc_0
      + pi_d_a7_a9_proc_0 - pi_d_a9_a7_proc_0 >= 0
 c21: 782 pi_p_a7_a9 + 782 pi_p_a7_a1 + 782 pi_d_a7_a0_proc_0
      + 782 pi_d_a7_a1_proc_0 + 782 pi_d_a7_a2_proc_0 + 782 pi_d_a7_a3_proc_0
      + 782 pi_d_a7_a4_proc_0 + 782 pi_d_a7_a5_proc_0 + 782 pi_d_a7_a6_proc_0
      + 782 pi_d_a7_a8_proc_0 + 782 pi_d_a7_a9_proc_0 + pi_y1_a7
      + pi_y2_a7_proc_0 >= 0
 c22: pi_p_a8_a3 - pi_d_a0_a8_proc_0 + pi_d_a8_a0_proc_0 - pi_d_a1_a8_proc_0
      + pi_d_a8_a1_proc_0 - pi_d_a2_a8_proc_0 + pi_d_a8_a2_proc_0
      - pi_d_a3_a8_proc_0 + pi_d_a8_a3_proc_0 - pi_d_a4_a8_proc_0
      + pi_d_a8_a4_proc_0 - pi_d_a5_a8_proc_0 + pi_d_a8_a5_proc_0
      - pi_d_a6_a8_proc_0 + pi_d_a8_a6_proc_0 - pi_d_a7_a8_proc_0
      + pi_d_a8_a7_proc_0 + pi_d_a8_a9_proc_0 - pi_d_a9_a8_proc_0 >= 0
 c23: 985 pi_p_a8_a3 + 985 pi_d_a8_a0_proc_0 + 985 pi_d_a8_a1_proc_0
      + 985 pi_d_a8_a2_proc_0 + 985 pi_d_a8_a3_proc_0 + 985 pi_d_a8_a4_proc_0
      + 985 pi_d_a8_a5_proc_0 + 985 pi_d_a8_a6_proc_0 + 985 pi_d_a8_a7_proc_0
      + 985 pi_d_a8_a9_proc_0 + pi_y1_a8 + pi_y2_a8_proc_0 >= 0
 c24: pi_p_a9_a7 - pi_p_a1_a9 - pi_p_a7_a9 - pi_p_a2_a9 - pi_d_a0_a9_proc_1
      - pi_d_a0_a9_proc_0 + pi_d_a9_a0_proc_1 + pi_d_a9_a0_proc_0
      - pi_d_a1_a9_proc_1 - pi_d_a1_a9_proc_0 + pi_d_a9_a1_proc_1
      + pi_d_a9_a1_proc_0 - pi_d_a2_a9_proc_1 - pi_d_a2_a9_proc_0
      + pi_d_a9_a2_proc_1 + pi_d_a9_a2_proc_0 - pi_d_a3_a9_proc_0
      + pi_d_a9_a3_proc_0 - pi_d_a4_a9_proc_0 + pi_d_a9_a4_proc_0
      - pi_d_a5_a9_proc_1 - pi_d_a5_a9_proc_0 + pi_d_a9_a5_proc_1
      + pi_d_a9_a5_proc_0 - pi_d_a6_a9_proc_0 + pi_d_a9_a6_proc_0
      - pi_d_a7_a9_proc_0 + pi_d_a9_a7_proc_0 - pi_d_a8_a9_proc_0
      + pi_d_a9_a8_proc_0 >= 0
 c25: 1154 pi_p_a9_a7 + 1154 pi_d_a9_a0_proc_0 + 1154 pi_d_a9_a1_proc_0
      + 1154 pi_d_a9_a2_proc_0 + 1154 pi_d_a9_a3_proc_0 + 1154 pi_d_a9_a4_proc_0
      + 1154 pi_d_a9_a5_proc_0 + 1154 pi_d_a9_a6_proc_0 + 1154 pi_d_a9_a7_proc_0
      + 1154 pi_d_a9_a8_proc_0 + pi_y1_a9 + pi_y2_a9_proc_0 >= 0
 c26: 963 pi_p_a9_a7 + 963 pi_d_a9_a0_proc_1 + 963 pi_d_a9_a1_proc_1
      + 963 pi_d_a9_a2_proc_1 + 963 pi_d_a9_a5_proc_1 + pi_y1_a9
      + pi_y2_a9_proc_1 >= 0

Bounds
       pi_y1_a0 Free
       pi_y1_a1 Free
       pi_y1_a2 Free
       pi_y1_a3 Free
       pi_y1_a4 Free
       pi_y1_a5 Free
       pi_y1_a6 Free
       pi_y1_a7 Free
       pi_y1_a8 Free
       pi_y1_a9 Free
End
