benchmark/results/graph__10-1000-0.10-02_15/graph__10-1000-0.10-02_15_QuintonOs_Benders_sub.txt
solution for: Quinton Bounded Benders_dual_sub
objective: 0.0002096
status: OPTIMAL_SOLUTION(2)
pi_p_a9_a7=0.000
pi_p_a7_a1=0.000
pi_d_a2_a0_proc_1=0.000
pi_d_a0_a9_proc_1=0.000
pi_d_a1_a2_proc_1=0.000
pi_y1_a0=-0.241
pi_y1_a1=-0.228
pi_y1_a2=-0.165
pi_y1_a7=-0.164
pi_y1_a9=-0.202
pi_y2_a0_proc_0=0.241
pi_y2_a1_proc_0=0.228
pi_y2_a2_proc_0=0.165
